p cnf 12 50 
11 -2 12 0
-8 7 -5 0
-6 -9 8 0
-6 5 4 0
-2 9 6 0
1 -9 -12 0
4 1 -12 0
-2 4 12 0
-2 9 -8 0
9 -4 -5 0
-10 -4 3 0
8 -9 -2 0
-9 -5 12 0
1 -11 -3 0
-9 12 4 0
4 3 -12 0
-12 11 8 0
-5 -3 -9 0
-3 8 -11 0
-11 -2 -6 0
4 1 -5 0
-9 8 4 0
2 1 10 0
11 1 12 0
-8 -10 6 0
-5 -1 -9 0
1 -12 -11 0
12 9 5 0
12 3 8 0
1 -3 2 0
3 5 11 0
6 7 8 0
-9 10 6 0
-4 -6 3 0
9 1 3 0
-5 12 -6 0
-8 -11 1 0
-4 8 9 0
9 8 6 0
3 -1 -7 0
-5 10 7 0
-7 -9 -4 0
-3 -1 11 0
9 -11 6 0
-3 -7 2 0
-5 -12 -8 0
-4 -3 -10 0
-10 6 -7 0
9 -4 -8 0
-10 5 6 0
